
<<< setup

Tried aggregator 1 time.
LP Presolve eliminated 122 rows and 82 columns.
Reduced LP has 3 rows, 27 columns, and 27 nonzeros.
Presolve time = 0.00 sec. (0.05 ticks)

Iteration log . . .
Iteration:     1   Dual objective     =          1713.437965
main returns 0

<<< main


<<< done

